71413.59
76 77 75 74 72 73 99 100 101 105 103 102 104 120 121 122 123 124 125 126 127 128 129 9 7 6 8 10 11 12 13 39 41 40 38 37 36 35 34 33 32 31 14 15 30 42 58 59 60 63 65 67 69 71 70 68 66 64 62 61 57 55 53 51 49 46 44 43 45 47 48 50 52 54 56 28 29 27 26 24 21 19 18 20 22 23 25 17 16 5 2 0 1 3 4 140 138 136 134 132 131 119 117 118 130 133 135 137 139 141 143 142 116 115 114 113 112 87 86 85 84 83 82 81 80 78 79 90 91 88 89 92 111 110 109 108 94 93 95 96 107 106 98 97